db/data/121565688162671787515543208641621929053.z3.out
sat
-------------------
11.480370763
